Iteration #1
Total number of hole bits is 368
Sketch file is blue_decrease_equivalent_1_canonicalizer_equivalent_0_sub_stateless_alu_arith_4_2_codegen_iteration_1.sk
Synthesis succeeded with 2 bits, proceeding to verification.
Verification failed.
Use returned counterexamples {'pkt_0': 19, 'pkt_1': 0} {'state_group_1_state_0': 0, 'state_group_0_state_0': 0}
updated constant array {'19', ' 10', ' 1', ' 3', '0', ' 2'}
Iteration #2
Total number of hole bits is 368
Sketch file is blue_decrease_equivalent_1_canonicalizer_equivalent_0_sub_stateless_alu_arith_4_2_codegen_iteration_2.sk
Synthesis succeeded with 2 bits, proceeding to verification.
Verification failed.
Use returned counterexamples {'pkt_0': 10, 'pkt_1': 0} {'state_group_1_state_0': 0, 'state_group_0_state_0': 0}
updated constant array {'19', ' 10', ' 1', ' 3', '0', ' 2', '10'}
Iteration #3
Total number of hole bits is 368
Sketch file is blue_decrease_equivalent_1_canonicalizer_equivalent_0_sub_stateless_alu_arith_4_2_codegen_iteration_3.sk
Synthesis succeeded with 2 bits, proceeding to verification.
Verification failed.
Use returned counterexamples {'pkt_0': 19, 'pkt_1': 0} {'state_group_1_state_0': 9, 'state_group_0_state_0': 0}
updated constant array {'19', ' 10', ' 1', ' 3', '0', ' 2', '10', '9'}
Iteration #4
Total number of hole bits is 368
Sketch file is blue_decrease_equivalent_1_canonicalizer_equivalent_0_sub_stateless_alu_arith_4_2_codegen_iteration_4.sk
Synthesis succeeded with 2 bits, proceeding to verification.
Verification failed.
Use returned counterexamples {'pkt_0': 18, 'pkt_1': 0} {'state_group_1_state_0': 0, 'state_group_0_state_0': 0}
updated constant array {'19', ' 10', '18', ' 1', ' 3', '0', ' 2', '10', '9'}
Iteration #5
Total number of hole bits is 416
Sketch file is blue_decrease_equivalent_1_canonicalizer_equivalent_0_sub_stateless_alu_arith_4_2_codegen_iteration_5.sk
Synthesis succeeded with 2 bits, proceeding to verification.
Verification failed.
Use returned counterexamples {'pkt_0': 19, 'pkt_1': 0} {'state_group_1_state_0': 1, 'state_group_0_state_0': 0}
updated constant array {'19', ' 10', '18', ' 1', ' 3', '1', '0', ' 2', '10', '9'}
Iteration #6
Total number of hole bits is 416
Sketch file is blue_decrease_equivalent_1_canonicalizer_equivalent_0_sub_stateless_alu_arith_4_2_codegen_iteration_6.sk
Synthesis succeeded with 2 bits, proceeding to verification.
Verification failed.
Use returned counterexamples {'pkt_0': 0, 'pkt_1': 0} {'state_group_1_state_0': 0, 'state_group_0_state_0': 10}
updated constant array {'19', ' 10', '18', ' 1', ' 3', '1', '0', ' 2', '10', '9'}
Iteration #7
Total number of hole bits is 416
Sketch file is blue_decrease_equivalent_1_canonicalizer_equivalent_0_sub_stateless_alu_arith_4_2_codegen_iteration_7.sk
Synthesis succeeded with 2 bits, proceeding to verification.
Verification failed.
Use returned counterexamples {'pkt_0': 17, 'pkt_1': 0} {'state_group_1_state_0': 0, 'state_group_0_state_0': 0}
updated constant array {'19', ' 10', '18', ' 1', ' 3', '1', '0', ' 2', '10', '9', '17'}
Iteration #8
Total number of hole bits is 416
Sketch file is blue_decrease_equivalent_1_canonicalizer_equivalent_0_sub_stateless_alu_arith_4_2_codegen_iteration_8.sk
Synthesis succeeded with 2 bits, proceeding to verification.
Verification failed.
Use returned counterexamples {'pkt_0': 0, 'pkt_1': 0} {'state_group_1_state_0': 11, 'state_group_0_state_0': 0}
updated constant array {'19', ' 10', '18', '11', ' 1', ' 3', '1', '0', ' 2', '10', '9', '17'}
Iteration #9
Total number of hole bits is 416
Sketch file is blue_decrease_equivalent_1_canonicalizer_equivalent_0_sub_stateless_alu_arith_4_2_codegen_iteration_9.sk
Synthesis succeeded with 2 bits, proceeding to verification.
Verification failed.
Use returned counterexamples {'pkt_0': 16, 'pkt_1': 0} {'state_group_1_state_0': 0, 'state_group_0_state_0': 0}
updated constant array {'19', ' 10', '18', '11', ' 1', ' 3', '1', '0', ' 2', '16', '10', '9', '17'}
Iteration #10
Total number of hole bits is 416
Sketch file is blue_decrease_equivalent_1_canonicalizer_equivalent_0_sub_stateless_alu_arith_4_2_codegen_iteration_10.sk
Synthesis succeeded with 2 bits, proceeding to verification.
Verification failed.
Use returned counterexamples {'pkt_0': 15, 'pkt_1': 0} {'state_group_1_state_0': 0, 'state_group_0_state_0': 0}
updated constant array {'19', ' 10', '15', '18', '11', ' 1', ' 3', '1', '0', ' 2', '16', '10', '9', '17'}
Iteration #11
Total number of hole bits is 416
Sketch file is blue_decrease_equivalent_1_canonicalizer_equivalent_0_sub_stateless_alu_arith_4_2_codegen_iteration_11.sk
Synthesis succeeded with 2 bits, proceeding to verification.
Verification failed.
Use returned counterexamples {'pkt_0': 22, 'pkt_1': 0} {'state_group_1_state_0': 12, 'state_group_0_state_0': 0}
updated constant array {'19', ' 10', '15', '18', '11', ' 1', ' 3', '1', '0', '12', '22', ' 2', '16', '10', '9', '17'}
Iteration #12
Total number of hole bits is 416
Sketch file is blue_decrease_equivalent_1_canonicalizer_equivalent_0_sub_stateless_alu_arith_4_2_codegen_iteration_12.sk
Synthesis succeeded with 2 bits, proceeding to verification.
Verification failed.
Use returned counterexamples {'pkt_0': 0, 'pkt_1': 0} {'state_group_1_state_0': 12, 'state_group_0_state_0': 0}
updated constant array {'19', ' 10', '15', '18', '11', ' 1', ' 3', '1', '0', '12', '22', ' 2', '16', '10', '9', '17'}
Iteration #13
Total number of hole bits is 416
Sketch file is blue_decrease_equivalent_1_canonicalizer_equivalent_0_sub_stateless_alu_arith_4_2_codegen_iteration_13.sk
Synthesis succeeded with 2 bits, proceeding to verification.
Verification failed.
Use returned counterexamples {'pkt_0': 12, 'pkt_1': 0} {'state_group_1_state_0': 0, 'state_group_0_state_0': 1}
updated constant array {'19', ' 10', '15', '18', '11', ' 1', ' 3', '1', '0', '12', '22', ' 2', '16', '10', '9', '17'}
Iteration #14
Total number of hole bits is 416
Sketch file is blue_decrease_equivalent_1_canonicalizer_equivalent_0_sub_stateless_alu_arith_4_2_codegen_iteration_14.sk
Synthesis succeeded with 2 bits, proceeding to verification.
Verification failed.
Use returned counterexamples {'pkt_0': 11, 'pkt_1': 0} {'state_group_1_state_0': 0, 'state_group_0_state_0': 0}
updated constant array {'19', ' 10', '15', '18', '11', ' 1', ' 3', '1', '0', '12', '22', ' 2', '16', '10', '9', '17'}
Iteration #15
Total number of hole bits is 416
Sketch file is blue_decrease_equivalent_1_canonicalizer_equivalent_0_sub_stateless_alu_arith_4_2_codegen_iteration_15.sk
Synthesis succeeded with 2 bits, proceeding to verification.
blue_decrease_equivalent_1_canonicalizer_equivalent_0_sub_stateless_alu_arith_4_2_verify_iter_15.sk passed syntax check. 
Failed to generate counterexamples, z3 returned unsat
Compilation succeeded. Hole value assignments are following:
int blue_decrease_equivalent_1_canonicalizer_equivalent_0_sub_stateless_alu_arith_4_2_output_mux_phv_0_0_ctrl = 3
int blue_decrease_equivalent_1_canonicalizer_equivalent_0_sub_stateless_alu_arith_4_2_output_mux_phv_0_1_ctrl = 3
int blue_decrease_equivalent_1_canonicalizer_equivalent_0_sub_stateless_alu_arith_4_2_output_mux_phv_1_0_ctrl = 2
int blue_decrease_equivalent_1_canonicalizer_equivalent_0_sub_stateless_alu_arith_4_2_output_mux_phv_1_1_ctrl = 1
int blue_decrease_equivalent_1_canonicalizer_equivalent_0_sub_stateless_alu_arith_4_2_output_mux_phv_2_0_ctrl = 0
int blue_decrease_equivalent_1_canonicalizer_equivalent_0_sub_stateless_alu_arith_4_2_output_mux_phv_2_1_ctrl = 2
int blue_decrease_equivalent_1_canonicalizer_equivalent_0_sub_stateless_alu_arith_4_2_output_mux_phv_3_0_ctrl = 2
int blue_decrease_equivalent_1_canonicalizer_equivalent_0_sub_stateless_alu_arith_4_2_output_mux_phv_3_1_ctrl = 2
int blue_decrease_equivalent_1_canonicalizer_equivalent_0_sub_stateless_alu_arith_4_2_salu_config_0_0 = 0
int blue_decrease_equivalent_1_canonicalizer_equivalent_0_sub_stateless_alu_arith_4_2_salu_config_0_1 = 0
int blue_decrease_equivalent_1_canonicalizer_equivalent_0_sub_stateless_alu_arith_4_2_salu_config_1_0 = 0
int blue_decrease_equivalent_1_canonicalizer_equivalent_0_sub_stateless_alu_arith_4_2_salu_config_1_1 = 1
int blue_decrease_equivalent_1_canonicalizer_equivalent_0_sub_stateless_alu_arith_4_2_salu_config_2_0 = 0
int blue_decrease_equivalent_1_canonicalizer_equivalent_0_sub_stateless_alu_arith_4_2_salu_config_2_1 = 0
int blue_decrease_equivalent_1_canonicalizer_equivalent_0_sub_stateless_alu_arith_4_2_salu_config_3_0 = 1
int blue_decrease_equivalent_1_canonicalizer_equivalent_0_sub_stateless_alu_arith_4_2_salu_config_3_1 = 0
int blue_decrease_equivalent_1_canonicalizer_equivalent_0_sub_stateless_alu_arith_4_2_stateful_alu_0_0_Mux3_0_global = 2
int blue_decrease_equivalent_1_canonicalizer_equivalent_0_sub_stateless_alu_arith_4_2_stateful_alu_0_0_Mux3_1_global = 1
int blue_decrease_equivalent_1_canonicalizer_equivalent_0_sub_stateless_alu_arith_4_2_stateful_alu_0_0_Mux3_2_global = 0
int blue_decrease_equivalent_1_canonicalizer_equivalent_0_sub_stateless_alu_arith_4_2_stateful_alu_0_0_Mux3_3_global = 2
int blue_decrease_equivalent_1_canonicalizer_equivalent_0_sub_stateless_alu_arith_4_2_stateful_alu_0_0_Mux3_4_global = 1
int blue_decrease_equivalent_1_canonicalizer_equivalent_0_sub_stateless_alu_arith_4_2_stateful_alu_0_0_Opt_0_global = 0
int blue_decrease_equivalent_1_canonicalizer_equivalent_0_sub_stateless_alu_arith_4_2_stateful_alu_0_0_Opt_1_global = 0
int blue_decrease_equivalent_1_canonicalizer_equivalent_0_sub_stateless_alu_arith_4_2_stateful_alu_0_0_Opt_2_global = 0
int blue_decrease_equivalent_1_canonicalizer_equivalent_0_sub_stateless_alu_arith_4_2_stateful_alu_0_0_arith_op_0_global = 0
int blue_decrease_equivalent_1_canonicalizer_equivalent_0_sub_stateless_alu_arith_4_2_stateful_alu_0_0_arith_op_1_global = 0
int blue_decrease_equivalent_1_canonicalizer_equivalent_0_sub_stateless_alu_arith_4_2_stateful_alu_0_0_const_0_global = 8
int blue_decrease_equivalent_1_canonicalizer_equivalent_0_sub_stateless_alu_arith_4_2_stateful_alu_0_0_const_1_global = 4
int blue_decrease_equivalent_1_canonicalizer_equivalent_0_sub_stateless_alu_arith_4_2_stateful_alu_0_0_const_2_global = 1
int blue_decrease_equivalent_1_canonicalizer_equivalent_0_sub_stateless_alu_arith_4_2_stateful_alu_0_0_const_3_global = 10
int blue_decrease_equivalent_1_canonicalizer_equivalent_0_sub_stateless_alu_arith_4_2_stateful_alu_0_0_const_4_global = 1
int blue_decrease_equivalent_1_canonicalizer_equivalent_0_sub_stateless_alu_arith_4_2_stateful_alu_0_0_output_mux_global = 1
int blue_decrease_equivalent_1_canonicalizer_equivalent_0_sub_stateless_alu_arith_4_2_stateful_alu_0_0_rel_op_0_global = 2
int blue_decrease_equivalent_1_canonicalizer_equivalent_0_sub_stateless_alu_arith_4_2_stateful_alu_0_1_Mux3_0_global = 2
int blue_decrease_equivalent_1_canonicalizer_equivalent_0_sub_stateless_alu_arith_4_2_stateful_alu_0_1_Mux3_1_global = 0
int blue_decrease_equivalent_1_canonicalizer_equivalent_0_sub_stateless_alu_arith_4_2_stateful_alu_0_1_Mux3_2_global = 0
int blue_decrease_equivalent_1_canonicalizer_equivalent_0_sub_stateless_alu_arith_4_2_stateful_alu_0_1_Mux3_3_global = 3
int blue_decrease_equivalent_1_canonicalizer_equivalent_0_sub_stateless_alu_arith_4_2_stateful_alu_0_1_Mux3_4_global = 3
int blue_decrease_equivalent_1_canonicalizer_equivalent_0_sub_stateless_alu_arith_4_2_stateful_alu_0_1_Opt_0_global = 0
int blue_decrease_equivalent_1_canonicalizer_equivalent_0_sub_stateless_alu_arith_4_2_stateful_alu_0_1_Opt_1_global = 0
int blue_decrease_equivalent_1_canonicalizer_equivalent_0_sub_stateless_alu_arith_4_2_stateful_alu_0_1_Opt_2_global = 0
int blue_decrease_equivalent_1_canonicalizer_equivalent_0_sub_stateless_alu_arith_4_2_stateful_alu_0_1_arith_op_0_global = 0
int blue_decrease_equivalent_1_canonicalizer_equivalent_0_sub_stateless_alu_arith_4_2_stateful_alu_0_1_arith_op_1_global = 1
int blue_decrease_equivalent_1_canonicalizer_equivalent_0_sub_stateless_alu_arith_4_2_stateful_alu_0_1_const_0_global = 5
int blue_decrease_equivalent_1_canonicalizer_equivalent_0_sub_stateless_alu_arith_4_2_stateful_alu_0_1_const_1_global = 0
int blue_decrease_equivalent_1_canonicalizer_equivalent_0_sub_stateless_alu_arith_4_2_stateful_alu_0_1_const_2_global = 10
int blue_decrease_equivalent_1_canonicalizer_equivalent_0_sub_stateless_alu_arith_4_2_stateful_alu_0_1_const_3_global = 10
int blue_decrease_equivalent_1_canonicalizer_equivalent_0_sub_stateless_alu_arith_4_2_stateful_alu_0_1_const_4_global = 7
int blue_decrease_equivalent_1_canonicalizer_equivalent_0_sub_stateless_alu_arith_4_2_stateful_alu_0_1_output_mux_global = 1
int blue_decrease_equivalent_1_canonicalizer_equivalent_0_sub_stateless_alu_arith_4_2_stateful_alu_0_1_rel_op_0_global = 2
int blue_decrease_equivalent_1_canonicalizer_equivalent_0_sub_stateless_alu_arith_4_2_stateful_alu_1_0_Mux3_0_global = 2
int blue_decrease_equivalent_1_canonicalizer_equivalent_0_sub_stateless_alu_arith_4_2_stateful_alu_1_0_Mux3_1_global = 0
int blue_decrease_equivalent_1_canonicalizer_equivalent_0_sub_stateless_alu_arith_4_2_stateful_alu_1_0_Mux3_2_global = 2
int blue_decrease_equivalent_1_canonicalizer_equivalent_0_sub_stateless_alu_arith_4_2_stateful_alu_1_0_Mux3_3_global = 0
int blue_decrease_equivalent_1_canonicalizer_equivalent_0_sub_stateless_alu_arith_4_2_stateful_alu_1_0_Mux3_4_global = 0
int blue_decrease_equivalent_1_canonicalizer_equivalent_0_sub_stateless_alu_arith_4_2_stateful_alu_1_0_Opt_0_global = 0
int blue_decrease_equivalent_1_canonicalizer_equivalent_0_sub_stateless_alu_arith_4_2_stateful_alu_1_0_Opt_1_global = 0
int blue_decrease_equivalent_1_canonicalizer_equivalent_0_sub_stateless_alu_arith_4_2_stateful_alu_1_0_Opt_2_global = 0
int blue_decrease_equivalent_1_canonicalizer_equivalent_0_sub_stateless_alu_arith_4_2_stateful_alu_1_0_arith_op_0_global = 0
int blue_decrease_equivalent_1_canonicalizer_equivalent_0_sub_stateless_alu_arith_4_2_stateful_alu_1_0_arith_op_1_global = 0
int blue_decrease_equivalent_1_canonicalizer_equivalent_0_sub_stateless_alu_arith_4_2_stateful_alu_1_0_const_0_global = 4
int blue_decrease_equivalent_1_canonicalizer_equivalent_0_sub_stateless_alu_arith_4_2_stateful_alu_1_0_const_1_global = 13
int blue_decrease_equivalent_1_canonicalizer_equivalent_0_sub_stateless_alu_arith_4_2_stateful_alu_1_0_const_2_global = 8
int blue_decrease_equivalent_1_canonicalizer_equivalent_0_sub_stateless_alu_arith_4_2_stateful_alu_1_0_const_3_global = 1
int blue_decrease_equivalent_1_canonicalizer_equivalent_0_sub_stateless_alu_arith_4_2_stateful_alu_1_0_const_4_global = 2
int blue_decrease_equivalent_1_canonicalizer_equivalent_0_sub_stateless_alu_arith_4_2_stateful_alu_1_0_output_mux_global = 0
int blue_decrease_equivalent_1_canonicalizer_equivalent_0_sub_stateless_alu_arith_4_2_stateful_alu_1_0_rel_op_0_global = 2
int blue_decrease_equivalent_1_canonicalizer_equivalent_0_sub_stateless_alu_arith_4_2_stateful_alu_1_1_Mux3_0_global = 1
int blue_decrease_equivalent_1_canonicalizer_equivalent_0_sub_stateless_alu_arith_4_2_stateful_alu_1_1_Mux3_1_global = 1
int blue_decrease_equivalent_1_canonicalizer_equivalent_0_sub_stateless_alu_arith_4_2_stateful_alu_1_1_Mux3_2_global = 0
int blue_decrease_equivalent_1_canonicalizer_equivalent_0_sub_stateless_alu_arith_4_2_stateful_alu_1_1_Mux3_3_global = 3
int blue_decrease_equivalent_1_canonicalizer_equivalent_0_sub_stateless_alu_arith_4_2_stateful_alu_1_1_Mux3_4_global = 1
int blue_decrease_equivalent_1_canonicalizer_equivalent_0_sub_stateless_alu_arith_4_2_stateful_alu_1_1_Opt_0_global = 0
int blue_decrease_equivalent_1_canonicalizer_equivalent_0_sub_stateless_alu_arith_4_2_stateful_alu_1_1_Opt_1_global = 0
int blue_decrease_equivalent_1_canonicalizer_equivalent_0_sub_stateless_alu_arith_4_2_stateful_alu_1_1_Opt_2_global = 1
int blue_decrease_equivalent_1_canonicalizer_equivalent_0_sub_stateless_alu_arith_4_2_stateful_alu_1_1_arith_op_0_global = 1
int blue_decrease_equivalent_1_canonicalizer_equivalent_0_sub_stateless_alu_arith_4_2_stateful_alu_1_1_arith_op_1_global = 0
int blue_decrease_equivalent_1_canonicalizer_equivalent_0_sub_stateless_alu_arith_4_2_stateful_alu_1_1_const_0_global = 13
int blue_decrease_equivalent_1_canonicalizer_equivalent_0_sub_stateless_alu_arith_4_2_stateful_alu_1_1_const_1_global = 0
int blue_decrease_equivalent_1_canonicalizer_equivalent_0_sub_stateless_alu_arith_4_2_stateful_alu_1_1_const_2_global = 4
int blue_decrease_equivalent_1_canonicalizer_equivalent_0_sub_stateless_alu_arith_4_2_stateful_alu_1_1_const_3_global = 4
int blue_decrease_equivalent_1_canonicalizer_equivalent_0_sub_stateless_alu_arith_4_2_stateful_alu_1_1_const_4_global = 1
int blue_decrease_equivalent_1_canonicalizer_equivalent_0_sub_stateless_alu_arith_4_2_stateful_alu_1_1_output_mux_global = 1
int blue_decrease_equivalent_1_canonicalizer_equivalent_0_sub_stateless_alu_arith_4_2_stateful_alu_1_1_rel_op_0_global = 2
int blue_decrease_equivalent_1_canonicalizer_equivalent_0_sub_stateless_alu_arith_4_2_stateful_alu_2_0_Mux3_0_global = 0
int blue_decrease_equivalent_1_canonicalizer_equivalent_0_sub_stateless_alu_arith_4_2_stateful_alu_2_0_Mux3_1_global = 1
int blue_decrease_equivalent_1_canonicalizer_equivalent_0_sub_stateless_alu_arith_4_2_stateful_alu_2_0_Mux3_2_global = 2
int blue_decrease_equivalent_1_canonicalizer_equivalent_0_sub_stateless_alu_arith_4_2_stateful_alu_2_0_Mux3_3_global = 1
int blue_decrease_equivalent_1_canonicalizer_equivalent_0_sub_stateless_alu_arith_4_2_stateful_alu_2_0_Mux3_4_global = 0
int blue_decrease_equivalent_1_canonicalizer_equivalent_0_sub_stateless_alu_arith_4_2_stateful_alu_2_0_Opt_0_global = 0
int blue_decrease_equivalent_1_canonicalizer_equivalent_0_sub_stateless_alu_arith_4_2_stateful_alu_2_0_Opt_1_global = 0
int blue_decrease_equivalent_1_canonicalizer_equivalent_0_sub_stateless_alu_arith_4_2_stateful_alu_2_0_Opt_2_global = 0
int blue_decrease_equivalent_1_canonicalizer_equivalent_0_sub_stateless_alu_arith_4_2_stateful_alu_2_0_arith_op_0_global = 1
int blue_decrease_equivalent_1_canonicalizer_equivalent_0_sub_stateless_alu_arith_4_2_stateful_alu_2_0_arith_op_1_global = 0
int blue_decrease_equivalent_1_canonicalizer_equivalent_0_sub_stateless_alu_arith_4_2_stateful_alu_2_0_const_0_global = 1
int blue_decrease_equivalent_1_canonicalizer_equivalent_0_sub_stateless_alu_arith_4_2_stateful_alu_2_0_const_1_global = 8
int blue_decrease_equivalent_1_canonicalizer_equivalent_0_sub_stateless_alu_arith_4_2_stateful_alu_2_0_const_2_global = 8
int blue_decrease_equivalent_1_canonicalizer_equivalent_0_sub_stateless_alu_arith_4_2_stateful_alu_2_0_const_3_global = 5
int blue_decrease_equivalent_1_canonicalizer_equivalent_0_sub_stateless_alu_arith_4_2_stateful_alu_2_0_const_4_global = 8
int blue_decrease_equivalent_1_canonicalizer_equivalent_0_sub_stateless_alu_arith_4_2_stateful_alu_2_0_output_mux_global = 0
int blue_decrease_equivalent_1_canonicalizer_equivalent_0_sub_stateless_alu_arith_4_2_stateful_alu_2_0_rel_op_0_global = 3
int blue_decrease_equivalent_1_canonicalizer_equivalent_0_sub_stateless_alu_arith_4_2_stateful_alu_2_1_Mux3_0_global = 3
int blue_decrease_equivalent_1_canonicalizer_equivalent_0_sub_stateless_alu_arith_4_2_stateful_alu_2_1_Mux3_1_global = 3
int blue_decrease_equivalent_1_canonicalizer_equivalent_0_sub_stateless_alu_arith_4_2_stateful_alu_2_1_Mux3_2_global = 3
int blue_decrease_equivalent_1_canonicalizer_equivalent_0_sub_stateless_alu_arith_4_2_stateful_alu_2_1_Mux3_3_global = 0
int blue_decrease_equivalent_1_canonicalizer_equivalent_0_sub_stateless_alu_arith_4_2_stateful_alu_2_1_Mux3_4_global = 0
int blue_decrease_equivalent_1_canonicalizer_equivalent_0_sub_stateless_alu_arith_4_2_stateful_alu_2_1_Opt_0_global = 0
int blue_decrease_equivalent_1_canonicalizer_equivalent_0_sub_stateless_alu_arith_4_2_stateful_alu_2_1_Opt_1_global = 0
int blue_decrease_equivalent_1_canonicalizer_equivalent_0_sub_stateless_alu_arith_4_2_stateful_alu_2_1_Opt_2_global = 0
int blue_decrease_equivalent_1_canonicalizer_equivalent_0_sub_stateless_alu_arith_4_2_stateful_alu_2_1_arith_op_0_global = 0
int blue_decrease_equivalent_1_canonicalizer_equivalent_0_sub_stateless_alu_arith_4_2_stateful_alu_2_1_arith_op_1_global = 0
int blue_decrease_equivalent_1_canonicalizer_equivalent_0_sub_stateless_alu_arith_4_2_stateful_alu_2_1_const_0_global = 10
int blue_decrease_equivalent_1_canonicalizer_equivalent_0_sub_stateless_alu_arith_4_2_stateful_alu_2_1_const_1_global = 5
int blue_decrease_equivalent_1_canonicalizer_equivalent_0_sub_stateless_alu_arith_4_2_stateful_alu_2_1_const_2_global = 0
int blue_decrease_equivalent_1_canonicalizer_equivalent_0_sub_stateless_alu_arith_4_2_stateful_alu_2_1_const_3_global = 8
int blue_decrease_equivalent_1_canonicalizer_equivalent_0_sub_stateless_alu_arith_4_2_stateful_alu_2_1_const_4_global = 0
int blue_decrease_equivalent_1_canonicalizer_equivalent_0_sub_stateless_alu_arith_4_2_stateful_alu_2_1_output_mux_global = 0
int blue_decrease_equivalent_1_canonicalizer_equivalent_0_sub_stateless_alu_arith_4_2_stateful_alu_2_1_rel_op_0_global = 2
int blue_decrease_equivalent_1_canonicalizer_equivalent_0_sub_stateless_alu_arith_4_2_stateful_alu_3_0_Mux3_0_global = 1
int blue_decrease_equivalent_1_canonicalizer_equivalent_0_sub_stateless_alu_arith_4_2_stateful_alu_3_0_Mux3_1_global = 3
int blue_decrease_equivalent_1_canonicalizer_equivalent_0_sub_stateless_alu_arith_4_2_stateful_alu_3_0_Mux3_2_global = 2
int blue_decrease_equivalent_1_canonicalizer_equivalent_0_sub_stateless_alu_arith_4_2_stateful_alu_3_0_Mux3_3_global = 3
int blue_decrease_equivalent_1_canonicalizer_equivalent_0_sub_stateless_alu_arith_4_2_stateful_alu_3_0_Mux3_4_global = 2
int blue_decrease_equivalent_1_canonicalizer_equivalent_0_sub_stateless_alu_arith_4_2_stateful_alu_3_0_Opt_0_global = 1
int blue_decrease_equivalent_1_canonicalizer_equivalent_0_sub_stateless_alu_arith_4_2_stateful_alu_3_0_Opt_1_global = 0
int blue_decrease_equivalent_1_canonicalizer_equivalent_0_sub_stateless_alu_arith_4_2_stateful_alu_3_0_Opt_2_global = 0
int blue_decrease_equivalent_1_canonicalizer_equivalent_0_sub_stateless_alu_arith_4_2_stateful_alu_3_0_arith_op_0_global = 1
int blue_decrease_equivalent_1_canonicalizer_equivalent_0_sub_stateless_alu_arith_4_2_stateful_alu_3_0_arith_op_1_global = 1
int blue_decrease_equivalent_1_canonicalizer_equivalent_0_sub_stateless_alu_arith_4_2_stateful_alu_3_0_const_0_global = 2
int blue_decrease_equivalent_1_canonicalizer_equivalent_0_sub_stateless_alu_arith_4_2_stateful_alu_3_0_const_1_global = 8
int blue_decrease_equivalent_1_canonicalizer_equivalent_0_sub_stateless_alu_arith_4_2_stateful_alu_3_0_const_2_global = 8
int blue_decrease_equivalent_1_canonicalizer_equivalent_0_sub_stateless_alu_arith_4_2_stateful_alu_3_0_const_3_global = 1
int blue_decrease_equivalent_1_canonicalizer_equivalent_0_sub_stateless_alu_arith_4_2_stateful_alu_3_0_const_4_global = 9
int blue_decrease_equivalent_1_canonicalizer_equivalent_0_sub_stateless_alu_arith_4_2_stateful_alu_3_0_output_mux_global = 0
int blue_decrease_equivalent_1_canonicalizer_equivalent_0_sub_stateless_alu_arith_4_2_stateful_alu_3_0_rel_op_0_global = 1
int blue_decrease_equivalent_1_canonicalizer_equivalent_0_sub_stateless_alu_arith_4_2_stateful_alu_3_1_Mux3_0_global = 2
int blue_decrease_equivalent_1_canonicalizer_equivalent_0_sub_stateless_alu_arith_4_2_stateful_alu_3_1_Mux3_1_global = 1
int blue_decrease_equivalent_1_canonicalizer_equivalent_0_sub_stateless_alu_arith_4_2_stateful_alu_3_1_Mux3_2_global = 1
int blue_decrease_equivalent_1_canonicalizer_equivalent_0_sub_stateless_alu_arith_4_2_stateful_alu_3_1_Mux3_3_global = 0
int blue_decrease_equivalent_1_canonicalizer_equivalent_0_sub_stateless_alu_arith_4_2_stateful_alu_3_1_Mux3_4_global = 0
int blue_decrease_equivalent_1_canonicalizer_equivalent_0_sub_stateless_alu_arith_4_2_stateful_alu_3_1_Opt_0_global = 0
int blue_decrease_equivalent_1_canonicalizer_equivalent_0_sub_stateless_alu_arith_4_2_stateful_alu_3_1_Opt_1_global = 0
int blue_decrease_equivalent_1_canonicalizer_equivalent_0_sub_stateless_alu_arith_4_2_stateful_alu_3_1_Opt_2_global = 0
int blue_decrease_equivalent_1_canonicalizer_equivalent_0_sub_stateless_alu_arith_4_2_stateful_alu_3_1_arith_op_0_global = 1
int blue_decrease_equivalent_1_canonicalizer_equivalent_0_sub_stateless_alu_arith_4_2_stateful_alu_3_1_arith_op_1_global = 1
int blue_decrease_equivalent_1_canonicalizer_equivalent_0_sub_stateless_alu_arith_4_2_stateful_alu_3_1_const_0_global = 8
int blue_decrease_equivalent_1_canonicalizer_equivalent_0_sub_stateless_alu_arith_4_2_stateful_alu_3_1_const_1_global = 0
int blue_decrease_equivalent_1_canonicalizer_equivalent_0_sub_stateless_alu_arith_4_2_stateful_alu_3_1_const_2_global = 5
int blue_decrease_equivalent_1_canonicalizer_equivalent_0_sub_stateless_alu_arith_4_2_stateful_alu_3_1_const_3_global = 8
int blue_decrease_equivalent_1_canonicalizer_equivalent_0_sub_stateless_alu_arith_4_2_stateful_alu_3_1_const_4_global = 1
int blue_decrease_equivalent_1_canonicalizer_equivalent_0_sub_stateless_alu_arith_4_2_stateful_alu_3_1_output_mux_global = 0
int blue_decrease_equivalent_1_canonicalizer_equivalent_0_sub_stateless_alu_arith_4_2_stateful_alu_3_1_rel_op_0_global = 3
int blue_decrease_equivalent_1_canonicalizer_equivalent_0_sub_stateless_alu_arith_4_2_stateful_operand_mux_0_0_0_ctrl = 0
int blue_decrease_equivalent_1_canonicalizer_equivalent_0_sub_stateless_alu_arith_4_2_stateful_operand_mux_0_0_1_ctrl = 1
int blue_decrease_equivalent_1_canonicalizer_equivalent_0_sub_stateless_alu_arith_4_2_stateful_operand_mux_0_1_0_ctrl = 0
int blue_decrease_equivalent_1_canonicalizer_equivalent_0_sub_stateless_alu_arith_4_2_stateful_operand_mux_0_1_1_ctrl = 0
int blue_decrease_equivalent_1_canonicalizer_equivalent_0_sub_stateless_alu_arith_4_2_stateful_operand_mux_1_0_0_ctrl = 1
int blue_decrease_equivalent_1_canonicalizer_equivalent_0_sub_stateless_alu_arith_4_2_stateful_operand_mux_1_0_1_ctrl = 1
int blue_decrease_equivalent_1_canonicalizer_equivalent_0_sub_stateless_alu_arith_4_2_stateful_operand_mux_1_1_0_ctrl = 0
int blue_decrease_equivalent_1_canonicalizer_equivalent_0_sub_stateless_alu_arith_4_2_stateful_operand_mux_1_1_1_ctrl = 0
int blue_decrease_equivalent_1_canonicalizer_equivalent_0_sub_stateless_alu_arith_4_2_stateful_operand_mux_2_0_0_ctrl = 1
int blue_decrease_equivalent_1_canonicalizer_equivalent_0_sub_stateless_alu_arith_4_2_stateful_operand_mux_2_0_1_ctrl = 0
int blue_decrease_equivalent_1_canonicalizer_equivalent_0_sub_stateless_alu_arith_4_2_stateful_operand_mux_2_1_0_ctrl = 0
int blue_decrease_equivalent_1_canonicalizer_equivalent_0_sub_stateless_alu_arith_4_2_stateful_operand_mux_2_1_1_ctrl = 0
int blue_decrease_equivalent_1_canonicalizer_equivalent_0_sub_stateless_alu_arith_4_2_stateful_operand_mux_3_0_0_ctrl = 0
int blue_decrease_equivalent_1_canonicalizer_equivalent_0_sub_stateless_alu_arith_4_2_stateful_operand_mux_3_0_1_ctrl = 0
int blue_decrease_equivalent_1_canonicalizer_equivalent_0_sub_stateless_alu_arith_4_2_stateful_operand_mux_3_1_0_ctrl = 0
int blue_decrease_equivalent_1_canonicalizer_equivalent_0_sub_stateless_alu_arith_4_2_stateful_operand_mux_3_1_1_ctrl = 0
int blue_decrease_equivalent_1_canonicalizer_equivalent_0_sub_stateless_alu_arith_4_2_stateless_alu_0_0_immediate = 4
int blue_decrease_equivalent_1_canonicalizer_equivalent_0_sub_stateless_alu_arith_4_2_stateless_alu_0_0_mux1_ctrl = 0
int blue_decrease_equivalent_1_canonicalizer_equivalent_0_sub_stateless_alu_arith_4_2_stateless_alu_0_0_mux2_ctrl = 0
int blue_decrease_equivalent_1_canonicalizer_equivalent_0_sub_stateless_alu_arith_4_2_stateless_alu_0_0_opcode = 4
int blue_decrease_equivalent_1_canonicalizer_equivalent_0_sub_stateless_alu_arith_4_2_stateless_alu_0_1_immediate = 14
int blue_decrease_equivalent_1_canonicalizer_equivalent_0_sub_stateless_alu_arith_4_2_stateless_alu_0_1_mux1_ctrl = 0
int blue_decrease_equivalent_1_canonicalizer_equivalent_0_sub_stateless_alu_arith_4_2_stateless_alu_0_1_mux2_ctrl = 1
int blue_decrease_equivalent_1_canonicalizer_equivalent_0_sub_stateless_alu_arith_4_2_stateless_alu_0_1_opcode = 4
int blue_decrease_equivalent_1_canonicalizer_equivalent_0_sub_stateless_alu_arith_4_2_stateless_alu_1_0_immediate = 11
int blue_decrease_equivalent_1_canonicalizer_equivalent_0_sub_stateless_alu_arith_4_2_stateless_alu_1_0_mux1_ctrl = 1
int blue_decrease_equivalent_1_canonicalizer_equivalent_0_sub_stateless_alu_arith_4_2_stateless_alu_1_0_mux2_ctrl = 0
int blue_decrease_equivalent_1_canonicalizer_equivalent_0_sub_stateless_alu_arith_4_2_stateless_alu_1_0_opcode = 6
int blue_decrease_equivalent_1_canonicalizer_equivalent_0_sub_stateless_alu_arith_4_2_stateless_alu_1_1_immediate = 6
int blue_decrease_equivalent_1_canonicalizer_equivalent_0_sub_stateless_alu_arith_4_2_stateless_alu_1_1_mux1_ctrl = 0
int blue_decrease_equivalent_1_canonicalizer_equivalent_0_sub_stateless_alu_arith_4_2_stateless_alu_1_1_mux2_ctrl = 0
int blue_decrease_equivalent_1_canonicalizer_equivalent_0_sub_stateless_alu_arith_4_2_stateless_alu_1_1_opcode = 2
int blue_decrease_equivalent_1_canonicalizer_equivalent_0_sub_stateless_alu_arith_4_2_stateless_alu_2_0_immediate = 0
int blue_decrease_equivalent_1_canonicalizer_equivalent_0_sub_stateless_alu_arith_4_2_stateless_alu_2_0_mux1_ctrl = 0
int blue_decrease_equivalent_1_canonicalizer_equivalent_0_sub_stateless_alu_arith_4_2_stateless_alu_2_0_mux2_ctrl = 0
int blue_decrease_equivalent_1_canonicalizer_equivalent_0_sub_stateless_alu_arith_4_2_stateless_alu_2_0_opcode = 0
int blue_decrease_equivalent_1_canonicalizer_equivalent_0_sub_stateless_alu_arith_4_2_stateless_alu_2_1_immediate = 1
int blue_decrease_equivalent_1_canonicalizer_equivalent_0_sub_stateless_alu_arith_4_2_stateless_alu_2_1_mux1_ctrl = 0
int blue_decrease_equivalent_1_canonicalizer_equivalent_0_sub_stateless_alu_arith_4_2_stateless_alu_2_1_mux2_ctrl = 0
int blue_decrease_equivalent_1_canonicalizer_equivalent_0_sub_stateless_alu_arith_4_2_stateless_alu_2_1_opcode = 5
int blue_decrease_equivalent_1_canonicalizer_equivalent_0_sub_stateless_alu_arith_4_2_stateless_alu_3_0_immediate = 5
int blue_decrease_equivalent_1_canonicalizer_equivalent_0_sub_stateless_alu_arith_4_2_stateless_alu_3_0_mux1_ctrl = 1
int blue_decrease_equivalent_1_canonicalizer_equivalent_0_sub_stateless_alu_arith_4_2_stateless_alu_3_0_mux2_ctrl = 0
int blue_decrease_equivalent_1_canonicalizer_equivalent_0_sub_stateless_alu_arith_4_2_stateless_alu_3_0_opcode = 2
int blue_decrease_equivalent_1_canonicalizer_equivalent_0_sub_stateless_alu_arith_4_2_stateless_alu_3_1_immediate = 14
int blue_decrease_equivalent_1_canonicalizer_equivalent_0_sub_stateless_alu_arith_4_2_stateless_alu_3_1_mux1_ctrl = 1
int blue_decrease_equivalent_1_canonicalizer_equivalent_0_sub_stateless_alu_arith_4_2_stateless_alu_3_1_mux2_ctrl = 0
int blue_decrease_equivalent_1_canonicalizer_equivalent_0_sub_stateless_alu_arith_4_2_stateless_alu_3_1_opcode = 4
Output left in blue_decrease_equivalent_1_canonicalizer_equivalent_0_sub_stateless_alu_arith_4_2.success